(set-logic HORN)
; KVARS

(declare-fun k_970 (Int Int Int Int Int Int Int Int Int Int) Bool)

(declare-fun k_968 (Int Int Int Int Int Int Int Int Int Int) Bool)

(declare-fun k_965 (Int Int Int Int Int Int Int Int Int) Bool)

(declare-fun k_963 (Int Int Int Int Int Int Int Int Int) Bool)

(declare-fun k_960 (Int Int Int Int Int Int Int Int Int Int) Bool)

(declare-fun k_958 (Int Int Int Int Int Int Int Int Int Int) Bool)

(declare-fun k_955 (Int Int Int Int Int Int Int Int) Bool)

(declare-fun k_953 (Int Int Int Int Int Int Int Int) Bool)

(declare-fun k_950 (Int Int Int Int Int Int Int) Bool)

(declare-fun k_947 (Int Int Int Int Int Int) Bool)

(declare-fun k_943 (Int Int Int Int Int Int Int Int Int Int Int Int) Bool)

(declare-fun k_940 (Int Int Int Int Int Int Int Int Int Int Int) Bool)

(declare-fun k_934 (Int Int Int Int Int Int Int Int) Bool)

(declare-fun k_931 (Int Int Int Int Int Int Int) Bool)

(declare-fun k_929 (Int Int Int Int Int Int Int Int) Bool)

(declare-fun k_927 (Int Int Int Int Int Int Int Int) Bool)

(declare-fun k_924 (Int Int Int Int Int Int Int Int Int) Bool)

(declare-fun k_922 (Int Int Int Int Int Int Int Int Int) Bool)

(declare-fun k_919 (Int Int Int Int Int Int) Bool)

(declare-fun k_917 (Int Int Int Int Int Int) Bool)

(declare-fun k_915 (Int Int Int Int Int Int Int) Bool)

(declare-fun k_913 (Int Int Int Int Int Int Int) Bool)

(declare-fun k_910 (Int Int Int Int Int Int Int Int) Bool)

(declare-fun k_908 (Int Int Int Int Int Int Int Int) Bool)

(declare-fun k_905 (Int Int Int Int Int Int) Bool)

(declare-fun k_903 (Int Int Int Int Int Int Int Int) Bool)

(declare-fun k_901 (Int Int Int Int Int Int Int) Bool)

(declare-fun k_899 (Int Int Int Int Int Int Int Int) Bool)

(declare-fun k_897 (Int Int Int Int Int Int Int Int) Bool)

(declare-fun k_894 (Int Int Int Int Int Int Int Int Int) Bool)

(declare-fun k_892 (Int Int Int Int Int Int Int Int Int) Bool)

(declare-fun k_889 (Int Int Int Int Int Int) Bool)

(declare-fun k_887 (Int Int Int Int Int Int Int) Bool)

(declare-fun k_885 (Int Int Int Int Int Int Int) Bool)

(declare-fun k_882 (Int Int Int Int Int Int Int Int) Bool)

(declare-fun k_880 (Int Int Int Int Int Int Int Int) Bool)

(declare-fun k_877 (Int Int Int Int Int Int) Bool)

(declare-fun k_875 (Int Int Int Int Int Int Int) Bool)

(declare-fun k_873 (Int Int Int Int Int Int Int) Bool)

(declare-fun k_870 (Int Int Int Int Int Int Int Int) Bool)

(declare-fun k_868 (Int Int Int Int Int Int Int Int) Bool)

(declare-fun k_865 (Int Int Int Int Int Int) Bool)

(declare-fun k_863 (Int Int Int Int Int Int Int Int) Bool)

(declare-fun k_861 (Int Int Int Int Int Int Int) Bool)

(declare-fun k_859 (Int Int Int Int Int Int Int Int) Bool)

(declare-fun k_857 (Int Int Int Int Int Int Int Int) Bool)

(declare-fun k_854 (Int Int Int Int Int Int Int Int Int) Bool)

(declare-fun k_852 (Int Int Int Int Int Int Int Int Int) Bool)

(declare-fun k_849 (Int Int Int Int Int Int) Bool)

(declare-fun k_847 (Int Int Int Int Int Int Int) Bool)

(declare-fun k_845 (Int Int Int Int Int Int Int) Bool)

(declare-fun k_842 (Int Int Int Int Int Int Int Int) Bool)

(declare-fun k_840 (Int Int Int Int Int Int Int Int) Bool)

(declare-fun k_837 (Int Int Int Int Int Int) Bool)

(declare-fun k_835 (Int Int Int Int Int Int Int) Bool)

(declare-fun k_833 (Int Int Int Int Int Int Int) Bool)

(declare-fun k_830 (Int Int Int Int Int Int Int Int) Bool)

(declare-fun k_828 (Int Int Int Int Int Int Int Int) Bool)

(declare-fun k_825 (Int Int Int Int Int Int) Bool)

(declare-fun k_823 (Int Int Int Int Int Int Int Int) Bool)

(declare-fun k_821 (Int Int Int Int Int Int Int) Bool)

(declare-fun k_819 (Int Int Int Int Int Int Int Int) Bool)

(declare-fun k_817 (Int Int Int Int Int Int Int Int) Bool)

(declare-fun k_814 (Int Int Int Int Int Int Int Int Int) Bool)

(declare-fun k_812 (Int Int Int Int Int Int Int Int Int) Bool)

(declare-fun k_809 (Int Int Int Int Int Int) Bool)

(declare-fun k_807 (Int Int Int Int Int Int Int) Bool)

(declare-fun k_805 (Int Int Int Int Int Int Int) Bool)

(declare-fun k_802 (Int Int Int Int Int Int Int Int) Bool)

(declare-fun k_800 (Int Int Int Int Int Int Int Int) Bool)

(declare-fun k_797 (Int Int Int Int Int Int) Bool)

(declare-fun k_795 (Int Int Int Int Int Int Int) Bool)

(declare-fun k_793 (Int Int Int Int Int Int Int) Bool)

(declare-fun k_790 (Int Int Int Int Int Int Int Int) Bool)

(declare-fun k_788 (Int Int Int Int Int Int Int Int) Bool)

(declare-fun k_785 (Int Int Int Int Int Int) Bool)

(declare-fun k_783 (Int Int Int Int Int Int Int Int) Bool)

(declare-fun k_781 (Int Int Int Int Int Int Int) Bool)

(declare-fun k_779 (Int Int Int Int Int Int Int Int) Bool)

(declare-fun k_777 (Int Int Int Int Int Int Int Int) Bool)

(declare-fun k_774 (Int Int Int Int Int Int Int Int Int) Bool)

(declare-fun k_772 (Int Int Int Int Int Int Int Int Int) Bool)

(declare-fun k_769 (Int Int Int Int Int Int) Bool)

(declare-fun k_767 (Int Int Int Int Int Int Int) Bool)

(declare-fun k_765 (Int Int Int Int Int Int Int) Bool)

(declare-fun k_762 (Int Int Int Int Int Int Int Int) Bool)

(declare-fun k_760 (Int Int Int Int Int Int Int Int) Bool)

(declare-fun k_757 (Int Int Int Int Int Int) Bool)

(declare-fun k_755 (Int Int Int Int Int Int Int) Bool)

(declare-fun k_753 (Int Int Int Int Int Int Int) Bool)

(declare-fun k_750 (Int Int Int Int Int Int Int Int) Bool)

(declare-fun k_748 (Int Int Int Int Int Int Int Int) Bool)

(declare-fun k_745 (Int Int Int Int Int Int) Bool)

(declare-fun k_743 (Int Int Int Int Int Int Int Int) Bool)

(declare-fun k_741 (Int Int Int Int Int Int Int Int Int) Bool)

(declare-fun k_739 (Int Int Int Int Int Int Int Int Int) Bool)

(declare-fun k_736 (Int Int Int Int Int Int Int Int Int Int) Bool)

(declare-fun k_734 (Int Int Int Int Int Int Int Int Int Int) Bool)

(declare-fun k_732 (Int Int Int Int Int Int Int) Bool)

(declare-fun k_730 (Int Int Int Int Int Int Int Int) Bool)

(declare-fun k_728 (Int Int Int Int Int Int Int Int) Bool)

(declare-fun k_725 (Int Int Int Int Int Int Int Int Int) Bool)

(declare-fun k_723 (Int Int Int Int Int Int Int Int Int) Bool)

(declare-fun k_720 (Int Int Int Int Int Int) Bool)

(declare-fun k_718 (Int Int Int Int Int Int Int) Bool)

(declare-fun k_716 (Int Int Int Int Int Int Int) Bool)

(declare-fun k_713 (Int Int Int Int Int Int Int Int) Bool)

(declare-fun k_711 (Int Int Int Int Int Int Int Int) Bool)

(declare-fun k_708 (Int Int Int Int Int Int) Bool)

(declare-fun k_706 (Int Int Int Int Int Int Int) Bool)

(declare-fun k_704 (Int Int Int Int Int Int Int) Bool)

(declare-fun k_701 (Int Int Int Int Int Int Int Int) Bool)

(declare-fun k_699 (Int Int Int Int Int Int Int Int) Bool)

(declare-fun k_696 (Int Int Int Int Int Int) Bool)

(declare-fun k_694 (Int Int Int Int Int Int Int Int) Bool)

(declare-fun k_692 (Int Int Int Int Int Int Int Int Int) Bool)

(declare-fun k_690 (Int Int Int Int Int Int Int Int Int) Bool)

(declare-fun k_687 (Int Int Int Int Int Int Int Int Int Int) Bool)

(declare-fun k_685 (Int Int Int Int Int Int Int Int Int Int) Bool)

(declare-fun k_683 (Int Int Int Int Int Int Int) Bool)

(declare-fun k_681 (Int Int Int Int Int Int Int Int) Bool)

(declare-fun k_679 (Int Int Int Int Int Int Int Int) Bool)

(declare-fun k_676 (Int Int Int Int Int Int Int Int Int) Bool)

(declare-fun k_674 (Int Int Int Int Int Int Int Int Int) Bool)

(declare-fun k_671 (Int Int Int Int Int Int) Bool)

(declare-fun k_669 (Int Int Int Int Int Int Int) Bool)

(declare-fun k_667 (Int Int Int Int Int Int Int) Bool)

(declare-fun k_664 (Int Int Int Int Int Int Int Int) Bool)

(declare-fun k_662 (Int Int Int Int Int Int Int Int) Bool)

(declare-fun k_659 (Int Int Int Int Int Int) Bool)

(declare-fun k_657 (Int Int Int Int Int Int Int) Bool)

(declare-fun k_655 (Int Int Int Int Int Int Int) Bool)

(declare-fun k_652 (Int Int Int Int Int Int Int Int) Bool)

(declare-fun k_650 (Int Int Int Int Int Int Int Int) Bool)

(declare-fun k_647 (Int Int Int Int Int Int) Bool)

(declare-fun k_644 (Int Int Int Int Int Int) Bool)

(declare-fun k_641 (Int Int Int Int Int Int) Bool)

(declare-fun k_638 (Int Int Int Int Int Int) Bool)

(declare-fun k_635 (Int Int Int Int Int Int) Bool)

(declare-fun k_632 (Int Int Int Int Int Int) Bool)

(declare-fun k_629 (Int Int Int Int Int Int) Bool)

(declare-fun k_626 (Int Int Int Int Int Int) Bool)

(declare-fun k_617 (Int Int Int Int Int Int Int Int) Bool)

(declare-fun k_615 (Int Int Int Int Int Int Int) Bool)

(declare-fun k_613 (Int Int Int Int Int Int Int Int) Bool)

(declare-fun k_611 (Int Int Int Int Int Int Int Int) Bool)

(declare-fun k_608 (Int Int Int Int Int Int Int Int Int) Bool)

(declare-fun k_606 (Int Int Int Int Int Int Int Int Int) Bool)

(declare-fun k_603 (Int Int Int Int Int Int) Bool)

(declare-fun k_601 (Int Int Int Int Int Int Int) Bool)

(declare-fun k_599 (Int Int Int Int Int Int Int) Bool)

(declare-fun k_596 (Int Int Int Int Int Int Int Int) Bool)

(declare-fun k_594 (Int Int Int Int Int Int Int Int) Bool)

(declare-fun k_591 (Int Int Int Int Int Int Int Int) Bool)

(declare-fun k_589 (Int Int Int Int Int Int Int) Bool)

(declare-fun k_587 (Int Int Int Int Int Int Int Int) Bool)

(declare-fun k_585 (Int Int Int Int Int Int Int Int) Bool)

(declare-fun k_582 (Int Int Int Int Int Int Int Int Int) Bool)

(declare-fun k_580 (Int Int Int Int Int Int Int Int Int) Bool)

(declare-fun k_577 (Int Int Int Int Int Int) Bool)

(declare-fun k_575 (Int Int Int Int Int Int Int) Bool)

(declare-fun k_573 (Int Int Int Int Int Int Int) Bool)

(declare-fun k_570 (Int Int Int Int Int Int Int Int) Bool)

(declare-fun k_568 (Int Int Int Int Int Int Int Int) Bool)

(declare-fun k_565 (Int Int Int Int Int Int Int Int) Bool)

(declare-fun k_563 (Int Int Int Int Int Int Int) Bool)

(declare-fun k_561 (Int Int Int Int Int Int Int Int) Bool)

(declare-fun k_559 (Int Int Int Int Int Int Int Int) Bool)

(declare-fun k_556 (Int Int Int Int Int Int Int Int Int) Bool)

(declare-fun k_554 (Int Int Int Int Int Int Int Int Int) Bool)

(declare-fun k_551 (Int Int Int Int Int Int) Bool)

(declare-fun k_549 (Int Int Int Int Int Int Int) Bool)

(declare-fun k_547 (Int Int Int Int Int Int Int) Bool)

(declare-fun k_544 (Int Int Int Int Int Int Int Int) Bool)

(declare-fun k_542 (Int Int Int Int Int Int Int Int) Bool)

(declare-fun k_539 (Int Int Int Int Int Int Int Int) Bool)

(declare-fun k_537 (Int Int Int Int Int Int Int) Bool)

(declare-fun k_535 (Int Int Int Int Int Int Int Int) Bool)

(declare-fun k_533 (Int Int Int Int Int Int Int Int) Bool)

(declare-fun k_530 (Int Int Int Int Int Int Int Int Int) Bool)

(declare-fun k_528 (Int Int Int Int Int Int Int Int Int) Bool)

(declare-fun k_525 (Int Int Int Int Int Int) Bool)

(declare-fun k_523 (Int Int Int Int Int Int Int) Bool)

(declare-fun k_521 (Int Int Int Int Int Int Int) Bool)

(declare-fun k_518 (Int Int Int Int Int Int Int Int) Bool)

(declare-fun k_516 (Int Int Int Int Int Int Int Int) Bool)

(declare-fun k_513 (Int Int Int Int Int Int Int Int) Bool)

(declare-fun k_511 (Int Int Int Int Int Int Int Int Int) Bool)

(declare-fun k_509 (Int Int Int Int Int Int Int Int Int) Bool)

(declare-fun k_506 (Int Int Int Int Int Int Int Int Int Int) Bool)

(declare-fun k_504 (Int Int Int Int Int Int Int Int Int Int) Bool)

(declare-fun k_502 (Int Int Int Int Int Int Int) Bool)

(declare-fun k_500 (Int Int Int Int Int Int Int Int) Bool)

(declare-fun k_498 (Int Int Int Int Int Int Int Int) Bool)

(declare-fun k_495 (Int Int Int Int Int Int Int Int Int) Bool)

(declare-fun k_493 (Int Int Int Int Int Int Int Int Int) Bool)

(declare-fun k_490 (Int Int Int Int Int Int) Bool)

(declare-fun k_488 (Int Int Int Int Int Int Int) Bool)

(declare-fun k_486 (Int Int Int Int Int Int Int) Bool)

(declare-fun k_483 (Int Int Int Int Int Int Int Int) Bool)

(declare-fun k_481 (Int Int Int Int Int Int Int Int) Bool)

(declare-fun k_478 (Int Int Int Int Int Int Int Int) Bool)

(declare-fun k_476 (Int Int Int Int Int Int Int Int Int) Bool)

(declare-fun k_474 (Int Int Int Int Int Int Int Int Int) Bool)

(declare-fun k_471 (Int Int Int Int Int Int Int Int Int Int) Bool)

(declare-fun k_469 (Int Int Int Int Int Int Int Int Int Int) Bool)

(declare-fun k_467 (Int Int Int Int Int Int Int) Bool)

(declare-fun k_465 (Int Int Int Int Int Int Int Int) Bool)

(declare-fun k_463 (Int Int Int Int Int Int Int Int) Bool)

(declare-fun k_460 (Int Int Int Int Int Int Int Int Int) Bool)

(declare-fun k_458 (Int Int Int Int Int Int Int Int Int) Bool)

(declare-fun k_455 (Int Int Int Int Int Int) Bool)

(declare-fun k_453 (Int Int Int Int Int Int Int) Bool)

(declare-fun k_451 (Int Int Int Int Int Int Int) Bool)

(declare-fun k_448 (Int Int Int Int Int Int Int Int) Bool)

(declare-fun k_446 (Int Int Int Int Int Int Int Int) Bool)

(declare-fun k_441 (Int Int Int Int Int Int) Bool)

(declare-fun k_439 (Int Int Int Int Int Int Int) Bool)

(declare-fun k_437 (Int Int Int Int Int Int Int) Bool)

(declare-fun k_434 (Int Int Int Int Int Int Int Int) Bool)

(declare-fun k_432 (Int Int Int Int Int Int Int Int) Bool)

(declare-fun k_430 (Int Int Int Int Int Int) Bool)

(declare-fun k_427 (Int Int Int Int Int Int Int) Bool)

(declare-fun k_425 (Int Int Int Int Int Int Int) Bool)

(declare-fun k_422 (Int Int Int Int Int Int) Bool)

(declare-fun k_420 (Int Int Int Int Int Int) Bool)

(declare-fun k_417 (Int Int Int Int Int Int Int) Bool)

(declare-fun k_415 (Int Int Int Int Int Int Int) Bool)

(declare-fun k_412 (Int Int Int Int Int Int) Bool)

(declare-fun k_410 (Int Int Int Int Int Int Int Int) Bool)

(declare-fun k_408 (Int Int Int Int Int Int Int) Bool)

(declare-fun k_406 (Int Int Int Int Int Int Int Int) Bool)

(declare-fun k_404 (Int Int Int Int Int Int Int Int) Bool)

(declare-fun k_401 (Int Int Int Int Int Int Int Int Int) Bool)

(declare-fun k_399 (Int Int Int Int Int Int Int Int Int) Bool)

(declare-fun k_396 (Int Int Int Int Int Int) Bool)

(declare-fun k_394 (Int Int Int Int Int Int Int) Bool)

(declare-fun k_392 (Int Int Int Int Int Int Int) Bool)

(declare-fun k_389 (Int Int Int Int Int Int Int Int) Bool)

(declare-fun k_387 (Int Int Int Int Int Int Int Int) Bool)

(declare-fun k_384 (Int Int Int Int Int Int) Bool)

(declare-fun k_382 (Int Int Int Int Int Int Int) Bool)

(declare-fun k_380 (Int Int Int Int Int Int Int) Bool)

(declare-fun k_377 (Int Int Int Int Int Int Int Int) Bool)

(declare-fun k_375 (Int Int Int Int Int Int Int Int) Bool)

(declare-fun k_372 (Int Int Int Int Int Int) Bool)

(declare-fun k_370 (Int Int Int Int Int Int Int Int) Bool)

(declare-fun k_368 (Int Int Int Int Int Int Int) Bool)

(declare-fun k_366 (Int Int Int Int Int Int Int Int) Bool)

(declare-fun k_364 (Int Int Int Int Int Int Int Int) Bool)

(declare-fun k_361 (Int Int Int Int Int Int Int Int Int) Bool)

(declare-fun k_359 (Int Int Int Int Int Int Int Int Int) Bool)

(declare-fun k_356 (Int Int Int Int Int Int) Bool)

(declare-fun k_354 (Int Int Int Int Int Int Int) Bool)

(declare-fun k_352 (Int Int Int Int Int Int Int) Bool)

(declare-fun k_349 (Int Int Int Int Int Int Int Int) Bool)

(declare-fun k_347 (Int Int Int Int Int Int Int Int) Bool)

(declare-fun k_344 (Int Int Int Int Int Int) Bool)

(declare-fun k_342 (Int Int Int Int Int Int Int) Bool)

(declare-fun k_340 (Int Int Int Int Int Int Int) Bool)

(declare-fun k_337 (Int Int Int Int Int Int Int Int) Bool)

(declare-fun k_335 (Int Int Int Int Int Int Int Int) Bool)

(declare-fun k_332 (Int Int Int Int Int Int) Bool)

(declare-fun k_329 (Int Int Int Int Int Int) Bool)

(declare-fun k_325 (Int Int Int Int Int Int Int Int) Bool)

(declare-fun k_323 (Int Int Int Int Int Int Int) Bool)

(declare-fun k_321 (Int Int Int Int Int Int Int Int) Bool)

(declare-fun k_319 (Int Int Int Int Int Int Int Int) Bool)

(declare-fun k_316 (Int Int Int Int Int Int Int Int Int) Bool)

(declare-fun k_314 (Int Int Int Int Int Int Int Int Int) Bool)

(declare-fun k_311 (Int Int Int Int Int Int) Bool)

(declare-fun k_309 (Int Int Int Int Int Int Int) Bool)

(declare-fun k_307 (Int Int Int Int Int Int Int) Bool)

(declare-fun k_304 (Int Int Int Int Int Int Int Int) Bool)

(declare-fun k_302 (Int Int Int Int Int Int Int Int) Bool)

(declare-fun k_298 (Int Int Int Int Int Int) Bool)

(declare-fun k_296 (Int Int Int Int Int Int Int) Bool)

(declare-fun k_294 (Int Int Int Int Int Int Int) Bool)

(declare-fun k_291 (Int Int Int Int Int Int Int Int) Bool)

(declare-fun k_289 (Int Int Int Int Int Int Int Int) Bool)

(declare-fun k_287 (Int Int Int Int Int Int) Bool)

(declare-fun k_285 (Int Int Int Int Int Int) Bool)

(declare-fun k_282 (Int Int Int Int Int Int Int) Bool)

(declare-fun k_280 (Int Int Int Int Int Int Int) Bool)

(declare-fun k_277 (Int Int Int Int Int Int) Bool)

(declare-fun k_275 (Int Int Int Int Int Int) Bool)

(declare-fun k_272 (Int Int Int Int Int Int Int) Bool)

(declare-fun k_270 (Int Int Int Int Int Int Int) Bool)

(declare-fun k_267 (Int Int Int Int Int Int) Bool)

(declare-fun k_264 (Int Int Int Int Int Int Int) Bool)

(declare-fun k_262 (Int Int Int Int Int Int Int) Bool)

(declare-fun k_259 (Int Int Int Int Int Int) Bool)

(declare-fun k_257 (Int Int Int Int Int Int Int Int) Bool)

(declare-fun k_255 (Int Int Int Int Int Int Int) Bool)

(declare-fun k_253 (Int Int Int Int Int Int Int Int) Bool)

(declare-fun k_251 (Int Int Int Int Int Int Int Int) Bool)

(declare-fun k_248 (Int Int Int Int Int Int Int Int Int) Bool)

(declare-fun k_246 (Int Int Int Int Int Int Int Int Int) Bool)

(declare-fun k_243 (Int Int Int Int Int Int) Bool)

(declare-fun k_241 (Int Int Int Int Int Int Int) Bool)

(declare-fun k_239 (Int Int Int Int Int Int Int) Bool)

(declare-fun k_236 (Int Int Int Int Int Int Int Int) Bool)

(declare-fun k_234 (Int Int Int Int Int Int Int Int) Bool)

(declare-fun k_226 (Int Int Int Int Int Int Int) Bool)

(declare-fun k_223 (Int Int Int Int Int Int) Bool)

(declare-fun k_221 (Int Int Int Int Int Int Int) Bool)

(declare-fun k_219 (Int Int Int Int Int Int Int) Bool)

(declare-fun k_212 (Int Int Int Int Int Int Int) Bool)

(declare-fun k_209 (Int Int Int Int Int Int) Bool)

(declare-fun k_207 (Int Int Int Int Int Int Int) Bool)

(declare-fun k_205 (Int Int Int Int Int Int Int) Bool)

(declare-fun k_203 (Int Int Int Int Int Int Int Int Int Int Int Int) Bool)

(declare-fun k_201 (Int Int Int Int Int Int Int Int Int Int Int Int) Bool)

(declare-fun k_198 (Int Int Int Int Int Int Int Int Int Int Int) Bool)

(declare-fun k_196 (Int Int Int Int Int Int Int Int Int Int Int) Bool)

(declare-fun k_193 (Int Int Int Int Int Int Int Int Int Int Int Int) Bool)

(declare-fun k_191 (Int Int Int Int Int Int Int Int Int Int Int Int) Bool)

(declare-fun k_186 (Int Int Int Int Int Int Int Int Int Int Int) Bool)

(declare-fun k_184 (Int Int Int Int Int Int Int Int Int Int) Bool)

(declare-fun k_179 (Int Int Int Int Int Int Int Int Int Int) Bool)

(declare-fun k_177 (Int Int Int Int Int Int Int Int Int) Bool)

(declare-fun k_172 (Int Int Int Int Int Int Int Int Int) Bool)

(declare-fun k_170 (Int Int Int Int Int Int Int Int) Bool)

(declare-fun k_165 (Int Int Int Int Int Int Int Int) Bool)

(declare-fun k_163 (Int Int Int Int Int Int Int) Bool)

(declare-fun k_161 (Int Int Int Int Int Int Int) Bool)

(declare-fun k_158 (Int Int Int Int Int Int) Bool)

(declare-fun k_154 (Int Int Int Int Int Int Int Int Int Int Int Int Int) Bool)

(declare-fun k_152 (Int Int Int Int Int Int Int Int Int Int Int Int Int Int) Bool)

(declare-fun k_147 (Int Int Int Int Int Int Int Int Int Int Int Int) Bool)

(declare-fun k_138 (Int Int Int Int Int Int Int) Bool)

(declare-fun k_135 (Int Int Int Int Int Int) Bool)

(declare-fun k_133 (Int Int Int Int Int Int Int) Bool)

(declare-fun k_131 (Int Int Int Int Int Int Int) Bool)

(declare-fun k_128 (Int Int Int Int Int Int Int Int) Bool)

(declare-fun k_126 (Int Int Int Int Int Int Int Int) Bool)

; CONSTRAINTS

; cid = 16
(assert (forall ((EQ_6U Int) 
(GT_6W Int) (LT_6S Int) (Prop (Array Int Bool)) (True_6u Int) (VV_F16 Int) 
(WrapType_rkn (Array Int (Array Int Int))) (cmp (Array Int Int)) 
(ds_dyy Int) (ds_dyz Int) (len (Array Int Int)) (lq_anf__dzm Int) 
(lq_anf__dzn Int) (lq_anf__dzo Int) (n_awV Int) (realWorld__0f Int) 
(xs_awW Int)) 
 (=> (and (not (select Prop VV_F16)) (and (k_931 EQ_6U GT_6W LT_6S True_6u ds_dyy n_awV realWorld__0f) (and (k_929 EQ_6U GT_6W LT_6S True_6u ds_dyz lq_anf__dzm n_awV realWorld__0f) (and (k_931 EQ_6U GT_6W LT_6S True_6u lq_anf__dzm n_awV realWorld__0f) (and (k_919 EQ_6U GT_6W LT_6S True_6u n_awV realWorld__0f) (and (k_927 EQ_6U GT_6W LT_6S True_6u xs_awW lq_anf__dzm n_awV realWorld__0f) (and (= (select cmp EQ_6U) EQ_6U) (and (= (select cmp GT_6W) GT_6W) (and (= (select cmp LT_6S) LT_6S) (and (select Prop True_6u) (and (= lq_anf__dzm ds_dyy) (and (= lq_anf__dzm (select (select WrapType_rkn xs_awW) ds_dyz)) (and (= lq_anf__dzn (select len xs_awW)) (and (= (select Prop lq_anf__dzo) (= n_awV lq_anf__dzn)) (and (>= (select len xs_awW) 0) (and (= (select Prop VV_F16) (= n_awV lq_anf__dzn)) (and (= VV_F16 lq_anf__dzo) true))))))))))))))))) false))
)


; cid = 11
(assert (forall ((EQ_6U Int) (GT_6W Int) (LT_6S Int) 
(Prop (Array Int Bool)) (True_6u Int) (VV_F11 Int) (cmp (Array Int Int)) 
(len (Array Int Int)) (n_awS Int) (nxs_awU Int) (realWorld__0f Int) 
(x_awT Int)) 
 (=> (and (k_947 EQ_6U GT_6W LT_6S True_6u n_awS realWorld__0f) (and (k_950 EQ_6U GT_6W LT_6S True_6u x_awT n_awS realWorld__0f) (and (= (select cmp EQ_6U) EQ_6U) (and (= (select cmp GT_6W) GT_6W) (and (= (select cmp LT_6S) LT_6S) (and (select Prop True_6u) (and (= (select len nxs_awU) n_awS) (and (>= (select len nxs_awU) 0) (and (= (select len VV_F11) n_awS) (and (>= (select len VV_F11) 0) (and (= VV_F11 nxs_awU) true))))))))))) (k_963 EQ_6U GT_6W LT_6S True_6u VV_F11 n_awS nxs_awU realWorld__0f x_awT)))
)


; cid = 10
(assert (forall ((EQ_6U Int) (GT_6W Int) (LT_6S Int) 
(Prop (Array Int Bool)) (True_6u Int) (VV_F10 Int) (cmp (Array Int Int)) 
(len (Array Int Int)) (n_awS Int) (nxs_awU Int) (realWorld__0f Int) 
(x_awT Int)) 
 (=> (and (k_947 EQ_6U GT_6W LT_6S True_6u n_awS realWorld__0f) (and (k_950 EQ_6U GT_6W LT_6S True_6u x_awT n_awS realWorld__0f) (and (= (select cmp EQ_6U) EQ_6U) (and (= (select cmp GT_6W) GT_6W) (and (= (select cmp LT_6S) LT_6S) (and (select Prop True_6u) (and (= (select len nxs_awU) n_awS) (and (>= (select len nxs_awU) 0) (and (k_950 EQ_6U GT_6W LT_6S True_6u VV_F10 n_awS realWorld__0f) (and (= VV_F10 x_awT) true)))))))))) (k_965 EQ_6U GT_6W LT_6S True_6u VV_F10 n_awS nxs_awU realWorld__0f x_awT)))
)


; cid = 9
(assert (forall ((EQ_6U Int) (GT_6W Int) (LT_6S Int) 
(Prop (Array Int Bool)) (True_6u Int) (VV_F9 Int) (cmp (Array Int Int)) 
(len (Array Int Int)) (n_awS Int) (nxs_awU Int) (realWorld__0f Int) 
(x_awT Int)) 
 (=> (and (k_947 EQ_6U GT_6W LT_6S True_6u n_awS realWorld__0f) (and (k_950 EQ_6U GT_6W LT_6S True_6u x_awT n_awS realWorld__0f) (and (= (select cmp EQ_6U) EQ_6U) (and (= (select cmp GT_6W) GT_6W) (and (= (select cmp LT_6S) LT_6S) (and (select Prop True_6u) (and (= (select len nxs_awU) n_awS) (and (>= (select len nxs_awU) 0) (and (k_947 EQ_6U GT_6W LT_6S True_6u VV_F9 realWorld__0f) (and (= VV_F9 n_awS) true)))))))))) (k_919 EQ_6U GT_6W LT_6S True_6u VV_F9 realWorld__0f)))
)


; cid = 8
(assert (forall ((EQ_6U Int) (GT_6W Int) (LT_6S Int) 
(Prop (Array Int Bool)) (True_6u Int) (VV_979 Int) (VV_F8 Int) 
(cmp (Array Int Int)) (len (Array Int Int)) (lq_anf__dzp Int) (n_awS Int) 
(nxs_awU Int) (realWorld__0f Int) 
(x_awT Int)) 
 (=> (and (k_947 EQ_6U GT_6W LT_6S True_6u n_awS realWorld__0f) (and (k_950 EQ_6U GT_6W LT_6S True_6u x_awT n_awS realWorld__0f) (and (= (select cmp EQ_6U) EQ_6U) (and (= (select cmp GT_6W) GT_6W) (and (= (select cmp LT_6S) LT_6S) (and (select Prop True_6u) (and (= VV_979 lq_anf__dzp) (and (= (select len nxs_awU) n_awS) (and (>= (select len nxs_awU) 0) (and (k_965 EQ_6U GT_6W LT_6S True_6u VV_F8 n_awS nxs_awU realWorld__0f x_awT) true)))))))))) (k_929 EQ_6U GT_6W LT_6S True_6u VV_F8 VV_979 n_awS realWorld__0f)))
)


; cid = 8
(assert (forall ((EQ_6U Int) (GT_6W Int) (LT_6S Int) 
(Prop (Array Int Bool)) (True_6u Int) (VV_979 Int) (VV_F8 Int) 
(cmp (Array Int Int)) (len (Array Int Int)) (lq_anf__dzp Int) (n_awS Int) 
(nxs_awU Int) (realWorld__0f Int) 
(x_awT Int)) 
 (=> (and (k_947 EQ_6U GT_6W LT_6S True_6u n_awS realWorld__0f) (and (k_950 EQ_6U GT_6W LT_6S True_6u x_awT n_awS realWorld__0f) (and (= (select cmp EQ_6U) EQ_6U) (and (= (select cmp GT_6W) GT_6W) (and (= (select cmp LT_6S) LT_6S) (and (select Prop True_6u) (and (= VV_979 lq_anf__dzp) (and (= (select len nxs_awU) n_awS) (and (>= (select len nxs_awU) 0) (and (k_965 EQ_6U GT_6W LT_6S True_6u VV_F8 n_awS nxs_awU realWorld__0f x_awT) true)))))))))) (k_968 EQ_6U GT_6W LT_6S True_6u VV_F8 lq_anf__dzp n_awS nxs_awU realWorld__0f x_awT)))
)


; cid = 5
(assert (forall ((EQ_6U Int) (GT_6W Int) (LT_6S Int) 
(Prop (Array Int Bool)) (True_6u Int) (VV_979 Int) (VV_F5 Int) 
(cmp (Array Int Int)) (len (Array Int Int)) (lq_anf__dzp Int) (n_awS Int) 
(nxs_awU Int) (realWorld__0f Int) 
(x_awT Int)) 
 (=> (and (k_947 EQ_6U GT_6W LT_6S True_6u n_awS realWorld__0f) (and (k_950 EQ_6U GT_6W LT_6S True_6u x_awT n_awS realWorld__0f) (and (= (select cmp EQ_6U) EQ_6U) (and (= (select cmp GT_6W) GT_6W) (and (= (select cmp LT_6S) LT_6S) (and (select Prop True_6u) (and (= VV_979 lq_anf__dzp) (and (= (select len nxs_awU) n_awS) (and (>= (select len nxs_awU) 0) (and (k_963 EQ_6U GT_6W LT_6S True_6u VV_F5 n_awS nxs_awU realWorld__0f x_awT) true)))))))))) (k_927 EQ_6U GT_6W LT_6S True_6u VV_F5 VV_979 n_awS realWorld__0f)))
)


; cid = 4
(assert (forall ((EQ_6U Int) (GT_6W Int) (LT_6S Int) 
(Prop (Array Int Bool)) (True_6u Int) (VV_F4 Int) (cmp (Array Int Int)) 
(len (Array Int Int)) (lq_anf__dzp Int) (n_awS Int) (nxs_awU Int) 
(realWorld__0f Int) 
(x_awT Int)) 
 (=> (and (k_947 EQ_6U GT_6W LT_6S True_6u n_awS realWorld__0f) (and (k_950 EQ_6U GT_6W LT_6S True_6u x_awT n_awS realWorld__0f) (and (= (select cmp EQ_6U) EQ_6U) (and (= (select cmp GT_6W) GT_6W) (and (= (select cmp LT_6S) LT_6S) (and (select Prop True_6u) (and (= (select len nxs_awU) n_awS) (and (>= (select len nxs_awU) 0) (and (= VV_F4 lq_anf__dzp) true))))))))) (k_931 EQ_6U GT_6W LT_6S True_6u VV_F4 n_awS realWorld__0f)))
)


; cid = 2
(assert (forall ((EQ_6U Int) (GT_6W Int) (LT_6S Int) 
(Prop (Array Int Bool)) (True_6u Int) (VV_F2 Int) (cmp (Array Int Int)) 
(dummy.pos.wrap1.hs.23.23 Int) 
(realWorld__0f Int)) 
 (=> (and (= (select cmp EQ_6U) EQ_6U) (and (= (select cmp GT_6W) GT_6W) (and (= (select cmp LT_6S) LT_6S) (and (select Prop True_6u) true)))) (k_950 EQ_6U GT_6W LT_6S True_6u VV_F2 dummy.pos.wrap1.hs.23.23 realWorld__0f)))
)


; cid = 1
(assert (forall ((EQ_6U Int) (GT_6W Int) (LT_6S Int) 
(Prop (Array Int Bool)) (True_6u Int) (VV_F1 Int) (cmp (Array Int Int)) 
(realWorld__0f Int)) 
 (=> (and (= (select cmp EQ_6U) EQ_6U) (and (= (select cmp GT_6W) GT_6W) (and (= (select cmp LT_6S) LT_6S) (and (select Prop True_6u) true)))) (k_947 EQ_6U GT_6W LT_6S True_6u VV_F1 realWorld__0f)))
)
